95 40 94 26 61 92 32 27 20 15 22 93 38 12 87 57 99 42 63 18 68 81 89 49 48 91 11 23 84 35 51 4 24 46 66 1 52 13 19 71 83 25 85 72 28 77 70 54 14 10 5 53 73 79 41 43 88 90 29 34 98 16 74 58 59 31 2 78 17 76 65 6 0 37 44 60 39 75 80 82 67 55 8 7 9 45 62 33 96 30 50 36 64 69 21 97 47 3 86 56 

